NAME: br17 
TYPE: ATSP 
COMMENT: 17 city problem (Repetto) 
DIMENSION: 17 
EDGE_WEIGHT_TYPE: EXPLICIT 
EDGE_WEIGHT_FORMAT: FULL_MATRIX 

CROSSOVER: 1
MUTATIONS: 1 0
SELECTION: 1
GENERATIONS: 510
POPULATION: 170

0 time
 1 9 10 14 4 3 5 15 0 12 2 13 11 6 16 8 7 | Mu 60.

1 time
 14 5 0 11 2 1 16 7 12 13 10 9 8 6 15 4 3 | Mu 57.

2 time
 4 3 14 6 5 11 0 1 9 12 13 2 10 16 8 7 15 | Mu 42.

3 time
 7 9 2 1 11 15 4 3 14 12 10 13 0 6 5 8 16 | Mu 66.

4 time
 0 16 7 11 2 13 9 12 1 8 6 5 14 4 3 15 10 | Mu 54.

MINIMUM: 42
AVERAGE: 55
MAXIMUM: 66

CROSSOVER: 1
MUTATIONS: 2 0
SELECTION: 1
GENERATIONS: 510
POPULATION: 170

0 time
 4 5 6 1 9 13 12 0 11 2 10 16 7 8 14 15 3 | Mu 50.

1 time
 13 12 9 7 8 10 16 11 15 5 3 4 6 14 0 1 2 | Mu 57.

2 time
 9 2 13 10 11 16 7 12 0 6 3 5 14 15 4 8 1 | Mu 65.

3 time
 0 13 2 1 7 8 11 15 4 3 14 5 6 16 10 9 12 | Mu 54.

4 time
 9 7 3 4 15 14 12 1 13 2 11 8 16 10 0 6 5 | Mu 68.

MINIMUM: 50
AVERAGE: 58
MAXIMUM: 68

CROSSOVER: 1
MUTATIONS: 1 2
SELECTION: 1
GENERATIONS: 510
POPULATION: 170

0 time
 13 12 0 11 10 9 1 7 14 5 4 3 15 6 8 16 2 | Mu 68.

1 time
 15 6 5 4 3 14 0 1 8 7 16 10 2 13 9 11 12 | Mu 53.

2 time
 1 9 16 10 2 13 0 12 8 11 15 6 14 5 3 4 7 | Mu 62.

3 time
 10 7 0 11 6 1 2 13 12 15 14 5 4 3 8 16 9 | Mu 63.

4 time
 0 11 16 12 1 13 9 2 10 7 15 6 4 8 3 14 5 | Mu 79.

MINIMUM: 53
AVERAGE: 65
MAXIMUM: 79

CROSSOVER: 1
MUTATIONS: 1 0
SELECTION: 2
GENERATIONS: 510
POPULATION: 170

0 time
 13 1 12 0 7 14 5 6 15 4 3 16 8 11 10 9 2 | Mu 48.

1 time
 3 5 16 8 1 2 10 9 12 13 0 11 7 14 6 15 4 | Mu 52.

2 time
 14 15 5 0 11 9 13 2 12 10 1 7 16 8 3 4 6 | Mu 40.

3 time
 15 16 10 1 12 14 6 5 3 4 7 8 9 13 2 11 0 | Mu 60.

4 time
 3 4 7 8 14 6 12 13 2 9 11 0 10 1 16 15 5 | Mu 59.

MINIMUM: 40
AVERAGE: 51
MAXIMUM: 60

CROSSOVER: 1
MUTATIONS: 2 0
SELECTION: 2
GENERATIONS: 510
POPULATION: 170

0 time
 0 9 1 12 2 13 11 7 16 6 5 15 4 3 8 10 14 | Mu 63.

1 time
 5 14 6 7 16 1 12 8 11 9 10 2 13 0 15 4 3 | Mu 54.

2 time
 2 10 13 12 7 16 8 6 15 3 14 4 5 11 0 9 1 | Mu 60.

3 time
 7 10 9 6 5 8 16 11 0 12 13 2 1 14 3 4 15 | Mu 63.

4 time
 14 7 1 11 9 13 2 10 12 0 16 8 6 4 3 5 15 | Mu 53.

MINIMUM: 53
AVERAGE: 58
MAXIMUM: 63

CROSSOVER: 1
MUTATIONS: 1 2
SELECTION: 2
GENERATIONS: 510
POPULATION: 170

0 time
 4 3 14 6 12 13 2 1 0 9 16 8 7 11 10 15 5 | Mu 53.

1 time
 9 1 14 4 3 8 7 16 12 10 13 2 11 5 15 6 0 | Mu 58.

2 time
 16 5 6 15 3 4 14 1 10 9 2 13 0 11 12 7 8 | Mu 44.

3 time
 1 10 9 0 7 16 8 11 14 15 4 3 5 6 12 13 2 | Mu 47.

4 time
 3 6 11 9 2 13 0 16 7 8 1 10 12 5 14 15 4 | Mu 49.

MINIMUM: 44
AVERAGE: 50
MAXIMUM: 58

CROSSOVER: 2
MUTATIONS: 1 2
SELECTION: 2
GENERATIONS: 510
POPULATION: 170

0 time
 15 14 11 0 1 9 16 12 2 13 10 7 8 5 6 4 3 | Mu 52.

1 time
 7 8 10 1 12 9 2 13 0 11 16 3 4 6 15 5 14 | Mu 44.

2 time
 9 11 13 2 1 0 16 7 8 14 5 15 4 3 6 12 10 | Mu 47.

3 time
 1 7 16 12 13 2 0 11 15 14 5 6 3 4 8 10 9 | Mu 49.

4 time
 9 2 13 1 16 12 0 11 15 6 14 5 3 4 7 8 10 | Mu 50.

MINIMUM: 44
AVERAGE: 48
MAXIMUM: 52

